set VV := 0 1 2 3 4 5 6 7 ;
set VS := 0 1 2 3 4 5 6 7 8 9 10 11 12 13 14 15 16 17 18 19 20 ;
param cv := 
0 16
1 24
2 24
3 16
4 17
5 16
6 21
7 25
;
param cs := 
0 24
1 29
2 26
3 30
4 24
5 39
6 38
7 38
8 21
9 30
10 38
11 32
12 34
13 23
14 31
15 34
16 23
17 20
18 32
19 33
20 26
;
param bv:	 0 1 2 3 4 5 6 7 := 
		0 0 0 0 0 0 0 0 17 
		1 0 0 0 0 24 0 0 0 
		2 0 0 0 0 0 15 10 0 
		3 0 0 0 0 19 0 0 0 
		4 0 0 0 0 0 0 25 17 
		5 0 0 0 0 0 0 0 0 
		6 0 0 0 0 0 0 0 0 
		7 0 0 0 0 0 0 0 0 
;
param bs:	 0 1 2 3 4 5 6 7 8 9 10 11 12 13 14 15 16 17 18 19 20 := 
		0 0 0 0 36 0 0 0 0 0 0 35 0 35 0 0 0 0 0 0 0 0 
		1 0 0 0 0 0 0 0 0 0 0 0 23 37 0 0 0 0 0 24 0 0 
		2 0 0 0 0 0 0 0 0 0 0 0 0 0 34 0 0 0 0 0 0 0 
		3 36 0 0 0 32 0 0 0 0 0 0 0 0 0 33 0 0 0 0 0 0 
		4 0 0 0 32 0 0 0 0 0 33 0 0 0 0 0 0 0 0 0 0 0 
		5 0 0 0 0 0 0 0 0 37 0 0 0 0 0 0 0 0 0 0 0 0 
		6 0 0 0 0 0 0 0 0 0 0 0 0 26 0 0 0 0 0 0 0 0 
		7 0 0 0 0 0 0 0 0 0 0 0 0 0 0 0 0 0 29 35 0 0 
		8 0 0 0 0 0 37 0 0 0 30 0 0 0 0 0 0 0 30 0 0 0 
		9 0 0 0 0 33 0 0 0 30 0 0 0 0 0 0 0 0 0 0 0 0 
		10 35 0 0 0 0 0 0 0 0 0 0 0 0 0 0 0 0 0 0 0 0 
		11 0 23 0 0 0 0 0 0 0 0 0 0 0 24 0 0 0 0 0 0 0 
		12 35 37 0 0 0 0 26 0 0 0 0 0 0 0 0 40 39 0 0 40 0 
		13 0 0 34 0 0 0 0 0 0 0 0 24 0 0 0 0 0 0 0 0 0 
		14 0 0 0 33 0 0 0 0 0 0 0 0 0 0 0 0 0 0 0 25 0 
		15 0 0 0 0 0 0 0 0 0 0 0 0 40 0 0 0 0 0 0 0 0 
		16 0 0 0 0 0 0 0 0 0 0 0 0 39 0 0 0 0 0 0 25 0 
		17 0 0 0 0 0 0 0 29 30 0 0 0 0 0 0 0 0 0 0 0 36 
		18 0 24 0 0 0 0 0 35 0 0 0 0 0 0 0 0 0 0 0 0 0 
		19 0 0 0 0 0 0 0 0 0 0 0 0 40 0 25 0 25 0 0 0 0 
		20 0 0 0 0 0 0 0 0 0 0 0 0 0 0 0 0 0 36 0 0 0 
;
